p cnf 42 452 
33 0
8 0
35 0
-10 0
12 0
27 0
34 0
-14 0
29 20 0
-41 -5 0
40 23 0
-24 -38 0
7 39 9 0
-1 -9 0
15 11 28 0
-26 -28 0
37 4 0
-37 -4 0
-4 -37 0
-31 0
-42 0
13 0
2 0
-32 0
21 0
-30 0
3 0
-29 -40 31 31 17 -33 0
-29 -40 31 31 -17 33 0
-29 -23 31 32 17 -33 0
-29 -23 31 32 -17 33 0
-20 -40 32 31 17 -33 0
-20 -40 32 31 -17 33 0
-20 -23 32 32 17 -33 0
-20 -23 32 32 -17 33 0
-29 -40 31 -31 17 -8 0
-29 -40 31 -31 -17 8 0
-29 -23 31 -32 17 -8 0
-29 -23 31 -32 -17 8 0
-20 -40 32 -31 17 -8 0
-20 -40 32 -31 -17 8 0
-20 -23 32 -32 17 -8 0
-20 -23 32 -32 -17 8 0
-29 -40 -31 31 17 -35 0
-29 -40 -31 31 -17 35 0
-29 -23 -31 32 17 -35 0
-29 -23 -31 32 -17 35 0
-20 -40 -32 31 17 -35 0
-20 -40 -32 31 -17 35 0
-20 -23 -32 32 17 -35 0
-20 -23 -32 32 -17 35 0
-29 -40 -31 -31 17 -10 0
-29 -40 -31 -31 -17 10 0
-29 -23 -31 -32 17 -10 0
-29 -23 -31 -32 -17 10 0
-20 -40 -32 -31 17 -10 0
-20 -40 -32 -31 -17 10 0
-20 -23 -32 -32 17 -10 0
-20 -23 -32 -32 -17 10 0
-29 -40 42 42 6 -33 0
-29 -40 42 42 -6 33 0
-29 -23 42 21 6 -33 0
-29 -23 42 21 -6 33 0
-20 -40 21 42 6 -33 0
-20 -40 21 42 -6 33 0
-20 -23 21 21 6 -33 0
-20 -23 21 21 -6 33 0
-29 -40 42 -42 6 -8 0
-29 -40 42 -42 -6 8 0
-29 -23 42 -21 6 -8 0
-29 -23 42 -21 -6 8 0
-20 -40 21 -42 6 -8 0
-20 -40 21 -42 -6 8 0
-20 -23 21 -21 6 -8 0
-20 -23 21 -21 -6 8 0
-29 -40 -42 42 6 -35 0
-29 -40 -42 42 -6 35 0
-29 -23 -42 21 6 -35 0
-29 -23 -42 21 -6 35 0
-20 -40 -21 42 6 -35 0
-20 -40 -21 42 -6 35 0
-20 -23 -21 21 6 -35 0
-20 -23 -21 21 -6 35 0
-29 -40 -42 -42 6 -10 0
-29 -40 -42 -42 -6 10 0
-29 -23 -42 -21 6 -10 0
-29 -23 -42 -21 -6 10 0
-20 -40 -21 -42 6 -10 0
-20 -40 -21 -42 -6 10 0
-20 -23 -21 -21 6 -10 0
-20 -23 -21 -21 -6 10 0
-29 -40 13 13 18 -33 0
-29 -40 13 13 -18 33 0
-29 -23 13 30 18 -33 0
-29 -23 13 30 -18 33 0
-20 -40 30 13 18 -33 0
-20 -40 30 13 -18 33 0
-20 -23 30 30 18 -33 0
-20 -23 30 30 -18 33 0
-29 -40 13 -13 18 -8 0
-29 -40 13 -13 -18 8 0
-29 -23 13 -30 18 -8 0
-29 -23 13 -30 -18 8 0
-20 -40 30 -13 18 -8 0
-20 -40 30 -13 -18 8 0
-20 -23 30 -30 18 -8 0
-20 -23 30 -30 -18 8 0
-29 -40 -13 13 18 -35 0
-29 -40 -13 13 -18 35 0
-29 -23 -13 30 18 -35 0
-29 -23 -13 30 -18 35 0
-20 -40 -30 13 18 -35 0
-20 -40 -30 13 -18 35 0
-20 -23 -30 30 18 -35 0
-20 -23 -30 30 -18 35 0
-29 -40 -13 -13 18 -10 0
-29 -40 -13 -13 -18 10 0
-29 -23 -13 -30 18 -10 0
-29 -23 -13 -30 -18 10 0
-20 -40 -30 -13 18 -10 0
-20 -40 -30 -13 -18 10 0
-20 -23 -30 -30 18 -10 0
-20 -23 -30 -30 -18 10 0
-29 -40 2 2 19 -33 0
-29 -40 2 2 -19 33 0
-29 -23 2 3 19 -33 0
-29 -23 2 3 -19 33 0
-20 -40 3 2 19 -33 0
-20 -40 3 2 -19 33 0
-20 -23 3 3 19 -33 0
-20 -23 3 3 -19 33 0
-29 -40 2 -2 19 -8 0
-29 -40 2 -2 -19 8 0
-29 -23 2 -3 19 -8 0
-29 -23 2 -3 -19 8 0
-20 -40 3 -2 19 -8 0
-20 -40 3 -2 -19 8 0
-20 -23 3 -3 19 -8 0
-20 -23 3 -3 -19 8 0
-29 -40 -2 2 19 -35 0
-29 -40 -2 2 -19 35 0
-29 -23 -2 3 19 -35 0
-29 -23 -2 3 -19 35 0
-20 -40 -3 2 19 -35 0
-20 -40 -3 2 -19 35 0
-20 -23 -3 3 19 -35 0
-20 -23 -3 3 -19 35 0
-29 -40 -2 -2 19 -10 0
-29 -40 -2 -2 -19 10 0
-29 -23 -2 -3 19 -10 0
-29 -23 -2 -3 -19 10 0
-20 -40 -3 -2 19 -10 0
-20 -40 -3 -2 -19 10 0
-20 -23 -3 -3 19 -10 0
-20 -23 -3 -3 -19 10 0
-7 -15 31 31 25 -12 0
-7 -15 31 31 -25 12 0
-7 -11 31 32 25 -12 0
-7 -11 31 32 -25 12 0
-7 -28 31 17 25 -12 0
-7 -28 31 17 -25 12 0
-39 -15 32 31 25 -12 0
-39 -15 32 31 -25 12 0
-39 -11 32 32 25 -12 0
-39 -11 32 32 -25 12 0
-39 -28 32 17 25 -12 0
-39 -28 32 17 -25 12 0
-9 -15 17 31 25 -12 0
-9 -15 17 31 -25 12 0
-9 -11 17 32 25 -12 0
-9 -11 17 32 -25 12 0
-9 -28 17 17 25 -12 0
-9 -28 17 17 -25 12 0
-7 -15 31 -31 25 -27 0
-7 -15 31 -31 -25 27 0
-7 -11 31 -32 25 -27 0
-7 -11 31 -32 -25 27 0
-7 -28 31 -17 25 -27 0
-7 -28 31 -17 -25 27 0
-39 -15 32 -31 25 -27 0
-39 -15 32 -31 -25 27 0
-39 -11 32 -32 25 -27 0
-39 -11 32 -32 -25 27 0
-39 -28 32 -17 25 -27 0
-39 -28 32 -17 -25 27 0
-9 -15 17 -31 25 -27 0
-9 -15 17 -31 -25 27 0
-9 -11 17 -32 25 -27 0
-9 -11 17 -32 -25 27 0
-9 -28 17 -17 25 -27 0
-9 -28 17 -17 -25 27 0
-7 -15 -31 31 25 -34 0
-7 -15 -31 31 -25 34 0
-7 -11 -31 32 25 -34 0
-7 -11 -31 32 -25 34 0
-7 -28 -31 17 25 -34 0
-7 -28 -31 17 -25 34 0
-39 -15 -32 31 25 -34 0
-39 -15 -32 31 -25 34 0
-39 -11 -32 32 25 -34 0
-39 -11 -32 32 -25 34 0
-39 -28 -32 17 25 -34 0
-39 -28 -32 17 -25 34 0
-9 -15 -17 31 25 -34 0
-9 -15 -17 31 -25 34 0
-9 -11 -17 32 25 -34 0
-9 -11 -17 32 -25 34 0
-9 -28 -17 17 25 -34 0
-9 -28 -17 17 -25 34 0
-7 -15 -31 -31 25 -14 0
-7 -15 -31 -31 -25 14 0
-7 -11 -31 -32 25 -14 0
-7 -11 -31 -32 -25 14 0
-7 -28 -31 -17 25 -14 0
-7 -28 -31 -17 -25 14 0
-39 -15 -32 -31 25 -14 0
-39 -15 -32 -31 -25 14 0
-39 -11 -32 -32 25 -14 0
-39 -11 -32 -32 -25 14 0
-39 -28 -32 -17 25 -14 0
-39 -28 -32 -17 -25 14 0
-9 -15 -17 -31 25 -14 0
-9 -15 -17 -31 -25 14 0
-9 -11 -17 -32 25 -14 0
-9 -11 -17 -32 -25 14 0
-9 -28 -17 -17 25 -14 0
-9 -28 -17 -17 -25 14 0
-7 -15 42 42 36 -12 0
-7 -15 42 42 -36 12 0
-7 -11 42 21 36 -12 0
-7 -11 42 21 -36 12 0
-7 -28 42 6 36 -12 0
-7 -28 42 6 -36 12 0
-39 -15 21 42 36 -12 0
-39 -15 21 42 -36 12 0
-39 -11 21 21 36 -12 0
-39 -11 21 21 -36 12 0
-39 -28 21 6 36 -12 0
-39 -28 21 6 -36 12 0
-9 -15 6 42 36 -12 0
-9 -15 6 42 -36 12 0
-9 -11 6 21 36 -12 0
-9 -11 6 21 -36 12 0
-9 -28 6 6 36 -12 0
-9 -28 6 6 -36 12 0
-7 -15 42 -42 36 -27 0
-7 -15 42 -42 -36 27 0
-7 -11 42 -21 36 -27 0
-7 -11 42 -21 -36 27 0
-7 -28 42 -6 36 -27 0
-7 -28 42 -6 -36 27 0
-39 -15 21 -42 36 -27 0
-39 -15 21 -42 -36 27 0
-39 -11 21 -21 36 -27 0
-39 -11 21 -21 -36 27 0
-39 -28 21 -6 36 -27 0
-39 -28 21 -6 -36 27 0
-9 -15 6 -42 36 -27 0
-9 -15 6 -42 -36 27 0
-9 -11 6 -21 36 -27 0
-9 -11 6 -21 -36 27 0
-9 -28 6 -6 36 -27 0
-9 -28 6 -6 -36 27 0
-7 -15 -42 42 36 -34 0
-7 -15 -42 42 -36 34 0
-7 -11 -42 21 36 -34 0
-7 -11 -42 21 -36 34 0
-7 -28 -42 6 36 -34 0
-7 -28 -42 6 -36 34 0
-39 -15 -21 42 36 -34 0
-39 -15 -21 42 -36 34 0
-39 -11 -21 21 36 -34 0
-39 -11 -21 21 -36 34 0
-39 -28 -21 6 36 -34 0
-39 -28 -21 6 -36 34 0
-9 -15 -6 42 36 -34 0
-9 -15 -6 42 -36 34 0
-9 -11 -6 21 36 -34 0
-9 -11 -6 21 -36 34 0
-9 -28 -6 6 36 -34 0
-9 -28 -6 6 -36 34 0
-7 -15 -42 -42 36 -14 0
-7 -15 -42 -42 -36 14 0
-7 -11 -42 -21 36 -14 0
-7 -11 -42 -21 -36 14 0
-7 -28 -42 -6 36 -14 0
-7 -28 -42 -6 -36 14 0
-39 -15 -21 -42 36 -14 0
-39 -15 -21 -42 -36 14 0
-39 -11 -21 -21 36 -14 0
-39 -11 -21 -21 -36 14 0
-39 -28 -21 -6 36 -14 0
-39 -28 -21 -6 -36 14 0
-9 -15 -6 -42 36 -14 0
-9 -15 -6 -42 -36 14 0
-9 -11 -6 -21 36 -14 0
-9 -11 -6 -21 -36 14 0
-9 -28 -6 -6 36 -14 0
-9 -28 -6 -6 -36 14 0
-7 -15 13 13 22 -12 0
-7 -15 13 13 -22 12 0
-7 -11 13 30 22 -12 0
-7 -11 13 30 -22 12 0
-7 -28 13 18 22 -12 0
-7 -28 13 18 -22 12 0
-39 -15 30 13 22 -12 0
-39 -15 30 13 -22 12 0
-39 -11 30 30 22 -12 0
-39 -11 30 30 -22 12 0
-39 -28 30 18 22 -12 0
-39 -28 30 18 -22 12 0
-9 -15 18 13 22 -12 0
-9 -15 18 13 -22 12 0
-9 -11 18 30 22 -12 0
-9 -11 18 30 -22 12 0
-9 -28 18 18 22 -12 0
-9 -28 18 18 -22 12 0
-7 -15 13 -13 22 -27 0
-7 -15 13 -13 -22 27 0
-7 -11 13 -30 22 -27 0
-7 -11 13 -30 -22 27 0
-7 -28 13 -18 22 -27 0
-7 -28 13 -18 -22 27 0
-39 -15 30 -13 22 -27 0
-39 -15 30 -13 -22 27 0
-39 -11 30 -30 22 -27 0
-39 -11 30 -30 -22 27 0
-39 -28 30 -18 22 -27 0
-39 -28 30 -18 -22 27 0
-9 -15 18 -13 22 -27 0
-9 -15 18 -13 -22 27 0
-9 -11 18 -30 22 -27 0
-9 -11 18 -30 -22 27 0
-9 -28 18 -18 22 -27 0
-9 -28 18 -18 -22 27 0
-7 -15 -13 13 22 -34 0
-7 -15 -13 13 -22 34 0
-7 -11 -13 30 22 -34 0
-7 -11 -13 30 -22 34 0
-7 -28 -13 18 22 -34 0
-7 -28 -13 18 -22 34 0
-39 -15 -30 13 22 -34 0
-39 -15 -30 13 -22 34 0
-39 -11 -30 30 22 -34 0
-39 -11 -30 30 -22 34 0
-39 -28 -30 18 22 -34 0
-39 -28 -30 18 -22 34 0
-9 -15 -18 13 22 -34 0
-9 -15 -18 13 -22 34 0
-9 -11 -18 30 22 -34 0
-9 -11 -18 30 -22 34 0
-9 -28 -18 18 22 -34 0
-9 -28 -18 18 -22 34 0
-7 -15 -13 -13 22 -14 0
-7 -15 -13 -13 -22 14 0
-7 -11 -13 -30 22 -14 0
-7 -11 -13 -30 -22 14 0
-7 -28 -13 -18 22 -14 0
-7 -28 -13 -18 -22 14 0
-39 -15 -30 -13 22 -14 0
-39 -15 -30 -13 -22 14 0
-39 -11 -30 -30 22 -14 0
-39 -11 -30 -30 -22 14 0
-39 -28 -30 -18 22 -14 0
-39 -28 -30 -18 -22 14 0
-9 -15 -18 -13 22 -14 0
-9 -15 -18 -13 -22 14 0
-9 -11 -18 -30 22 -14 0
-9 -11 -18 -30 -22 14 0
-9 -28 -18 -18 22 -14 0
-9 -28 -18 -18 -22 14 0
-7 -15 2 2 16 -12 0
-7 -15 2 2 -16 12 0
-7 -11 2 3 16 -12 0
-7 -11 2 3 -16 12 0
-7 -28 2 19 16 -12 0
-7 -28 2 19 -16 12 0
-39 -15 3 2 16 -12 0
-39 -15 3 2 -16 12 0
-39 -11 3 3 16 -12 0
-39 -11 3 3 -16 12 0
-39 -28 3 19 16 -12 0
-39 -28 3 19 -16 12 0
-9 -15 19 2 16 -12 0
-9 -15 19 2 -16 12 0
-9 -11 19 3 16 -12 0
-9 -11 19 3 -16 12 0
-9 -28 19 19 16 -12 0
-9 -28 19 19 -16 12 0
-7 -15 2 -2 16 -27 0
-7 -15 2 -2 -16 27 0
-7 -11 2 -3 16 -27 0
-7 -11 2 -3 -16 27 0
-7 -28 2 -19 16 -27 0
-7 -28 2 -19 -16 27 0
-39 -15 3 -2 16 -27 0
-39 -15 3 -2 -16 27 0
-39 -11 3 -3 16 -27 0
-39 -11 3 -3 -16 27 0
-39 -28 3 -19 16 -27 0
-39 -28 3 -19 -16 27 0
-9 -15 19 -2 16 -27 0
-9 -15 19 -2 -16 27 0
-9 -11 19 -3 16 -27 0
-9 -11 19 -3 -16 27 0
-9 -28 19 -19 16 -27 0
-9 -28 19 -19 -16 27 0
-7 -15 -2 2 16 -34 0
-7 -15 -2 2 -16 34 0
-7 -11 -2 3 16 -34 0
-7 -11 -2 3 -16 34 0
-7 -28 -2 19 16 -34 0
-7 -28 -2 19 -16 34 0
-39 -15 -3 2 16 -34 0
-39 -15 -3 2 -16 34 0
-39 -11 -3 3 16 -34 0
-39 -11 -3 3 -16 34 0
-39 -28 -3 19 16 -34 0
-39 -28 -3 19 -16 34 0
-9 -15 -19 2 16 -34 0
-9 -15 -19 2 -16 34 0
-9 -11 -19 3 16 -34 0
-9 -11 -19 3 -16 34 0
-9 -28 -19 19 16 -34 0
-9 -28 -19 19 -16 34 0
-7 -15 -2 -2 16 -14 0
-7 -15 -2 -2 -16 14 0
-7 -11 -2 -3 16 -14 0
-7 -11 -2 -3 -16 14 0
-7 -28 -2 -19 16 -14 0
-7 -28 -2 -19 -16 14 0
-39 -15 -3 -2 16 -14 0
-39 -15 -3 -2 -16 14 0
-39 -11 -3 -3 16 -14 0
-39 -11 -3 -3 -16 14 0
-39 -28 -3 -19 16 -14 0
-39 -28 -3 -19 -16 14 0
-9 -15 -19 -2 16 -14 0
-9 -15 -19 -2 -16 14 0
-9 -11 -19 -3 16 -14 0
-9 -11 -19 -3 -16 14 0
-9 -28 -19 -19 16 -14 0
-9 -28 -19 -19 -16 14 0
-37 -17 0
-37 -6 0
-37 18 0
-37 19 0
-4 -25 0
-4 -36 0
-4 22 0
-4 16 0
4 0
